1330019
87,45,86,81,14,39,84,92,22,52,24,43,90,59,19,26,17,79,40,51,94,29,12,25,78,73,95,47,66,4,7,82,2,27,64,5,3,89,85,42,97,35,61,15,65,11,23,54,98,71,34,46,28,67,58,16,83,88,50,99,80,48,10,9,33,57,1,70,74,93,31,49,44,8,53,72,6,18,41,75,56,62,36,68,32,63,37,55,91,69,77,96,30,21,20,60,13,76,38